1 1893 11
2 1611 11
5 1548 10
7 1534 10
10 1521 10
21 1471 10
48 1470 10
53 1461 10
54 1446 10
131 1420 10
207 1413 10



1 1818 10
2 1644 11
3 1615 11
5 1595 11
6 1561 11
7 1528 10
8 1489 10
24 1461 10
25 1455 10
127 1444 10
283 1433 10
678 1423 10



1 1882 11
2 1627 11
3 1561 10
7 1550 10
11 1496 10
15 1484 10
21 1476 10
30 1467 10
49 1455 10
326 1433 10
443 1426 10
544 1419 10
569 1413 10



1 1825 10
2 1612 11
3 1544 10
9 1541 11
13 1515 10
24 1457 10
43 1449 10
329 1425 10
653 1421 10
885 1409 10



1 1736 11
2 1614 10
4 1576 10
6 1570 11
8 1537 10
10 1525 10
19 1520 10
22 1511 10
25 1505 10
31 1448 10
171 1437 10
259 1410 10
532 1400 10



